(declare-const |main__sum':70:79:82:85| Int)
(declare-const havoc Int)
(declare-const |K:77:78:81:84| Int)
(declare-const |main__i':71:80:83:86| Int)
(assert (and (<= (+ (- havoc) 1) 0) (<= (+ havoc -1000) 0)
               (<= (+ (- havoc) 1) 0) (<= (+ (- havoc) 2) 0)
               (<= (+ (- havoc) 3) 0) (<= (+ (- havoc) 4) 0)
               (<= (+ (- havoc) 5) 0)
               (or (not (<= (- |K:77:78:81:84|) 0))
                     (= (+ (* 2 |main__sum':70:79:82:85|)
                             (- (* |K:77:78:81:84| |K:77:78:81:84|))
                             (* -11 |K:77:78:81:84|) -30) 0))
               (or (not (<= (- |K:77:78:81:84|) 0))
                     (= (+ |main__i':71:80:83:86| (- |K:77:78:81:84|) -6) 0))
               (or (and (= |K:77:78:81:84| 0)
                          (= (+ (- |main__i':71:80:83:86|) 6) 0)
                          (= (+ (- |main__sum':70:79:82:85|) 15) 0))
                     (and (<= (+ (- |K:77:78:81:84|) 1) 0)
                            (<= (+ (- havoc) 6) 0)
                            (<= (+ |main__i':71:80:83:86|
                                     (- |main__sum':70:79:82:85|)) 0)
                            (<= (+ |main__i':71:80:83:86| (- havoc) -1) 0)
                            (<= (+ (- |main__i':71:80:83:86|) 2) 0)))
               (<= (- |K:77:78:81:84|) 0) (< (- havoc) 0)
               (< (- |main__sum':70:79:82:85|) 0)
               (< (- |main__i':71:80:83:86|) 0)
               (< (+ (- |main__i':71:80:83:86|) havoc) 0)
               (= (ite (= (+ (* 2 |main__sum':70:79:82:85|)
                               (- (* havoc havoc)) (- havoc)) 0)
                       1 0) 0)))
(check-sat)
